c read Graph
c width = 397
c time = 555 ms
c width = 20
c time = 692 ms
c width = 19
c time = 923 ms
c width = 18
c time = 1730 ms
c width = 17
c time = 1769 ms
c width = 17
c time = 119907 ms
s td 578 18 606
b 1 1 34 209 401
b 2 34 209 271 401 473 530 539
b 3 34 192 271 401 473 530 539
b 4 17 192 271 401 473 530 539
b 5 17 170 192 401 473 530 539
b 6 17 170 192 333 401 530 539
b 7 17 170 192 233 235 318 333 401 530
b 8 17 33 170 172 192 233 235 267 318 333 401 422 476 499 505
b 9 17 33 170 172 192 233 267 287 324 333 397 422 425 453 476 499 505
b 10 17 33 170 172 192 233 267 287 324 333 397 422 425 453 476 499 603
b 11 17 33 170 172 192 233 267 287 305 324 333 397 422 425 453 476 499 603
b 12 17 33 103 170 192 233 267 287 305 324 333 397 422 425 453 499 603
b 13 17 103 170 192 221 267 287 305 324 333 425 453 499 603
b 14 103 221 287 305 324 389 425 603
b 15 103 221 287 304 324 389 425 603
b 16 103 221 250 287 304 389 425 603
b 17 250 304 389 407 425
b 18 194 221 250 304 389
b 19 250 297 304 389 603
b 20 17 170 192 221 267 453 499 521
b 21 170 192 221 267 451 453 499 521
b 22 176 192 221 267 451 453 499 521
b 23 66 176 267 451 521
b 24 176 451 453 521 532
b 25 50 176 192 451 521
b 26 172 305 310 453 476 603
b 27 172 305 310 595 603
b 28 305 310 509 595 603
b 29 214 310 509 595 603
b 30 214 310 423 509 595
b 31 129 214 310 423 509
b 32 129 202 214 310 423
b 33 129 202 214 310 587
b 34 202 214 265 587
b 35 129 202 310 462 587
b 36 36 129 310 462 587
b 37 36 55 462 587
b 38 36 129 462 512
b 39 26 202 462 587
b 40 202 214 423 484
b 41 214 423 485 595
b 42 310 453 476 520
b 43 287 348 425 453 476 505
b 44 248 287 348 425 476
b 45 237 248 287 348 425
b 46 156 237 248 348 425
b 47 156 237 248 348 374
b 48 156 237 348 374 508
b 49 156 348 374 506 508
b 50 106 156 374 506
b 51 156 348 450 506 508
b 52 156 450 506 525
b 53 335 348 450 506 508
b 54 203 335 450 506
b 55 334 335 348 450 508
b 56 216 334 335 450
b 57 10 334 335 508
b 58 156 248 374 395
b 59 238 348 453 505
b 60 93 172 287 324 397 425 453 505
b 61 93 172 453 597
b 62 93 287 324 342 397 425 505
b 63 93 287 313 324 342 425 505
b 64 93 287 313 342 405 425 505
b 65 93 213 313 342 405 425 505
b 66 93 152 213 313 342 405 505
b 67 74 93 152 213 313 505
b 68 74 152 213 249
b 69 93 117 152 213 313 342 405
b 70 117 152 213 342 478
b 71 117 152 213 343 478
b 72 28 117 343 478
b 73 56 93 117 313 405
b 74 56 93 313 424
b 75 42 56 117 405
b 76 56 93 405 518
b 77 17 33 172 192 233 235 263 267 318 401 422 476 499 505
b 78 17 33 115 172 192 233 235 263 267 318 401 476 499 505
b 79 33 47 115 235 401 476
b 80 33 47 235 368 476
b 81 33 47 235 357 368
b 82 234 235 357 368
b 83 33 235 357 415
b 84 68 115 233 235 263 267 499
b 85 68 115 267 381 499
b 86 17 33 115 172 192 233 263 318 401 505 602
b 87 17 192 233 263 318 331 602
b 88 17 192 331 571 602
b 89 31 33 115 263 505 602
b 90 31 33 263 266 505
b 91 31 263 266 505 543
b 92 31 168 266 543
b 93 11 31 505 543
b 94 33 172 229 318 401 602
b 95 33 41 172 229 318
b 96 41 172 229 318 584
b 97 41 229 576 584
b 98 39 172 229 584
b 99 235 263 318 422 474
b 100 24 34 209 271 473 530 539
b 101 24 34 209 276 539
b 102 34 100 276 539
b 103 34 174 209 276
b 104 24 239 276 539
b 105 24 271 473 530 570
b 106 473 530 570 579
b 107 271 390 530 570
b 108 17 33 103 170 192 227 233 267 287 305 324 333 397 422 425 499 533 603
b 109 17 103 170 192 227 267 287 305 324 333 351 397 422 425 430 499 533 603
b 110 17 103 170 192 199 227 267 305 324 333 351 397 422 430 499 533 603
b 111 17 45 103 170 192 199 227 267 333 351 394 422 430 499
b 112 45 103 170 199 227 262 267 332 333 351 394 422 430 499
b 113 170 262 267 332 333 499 554
b 114 242 262 267 332 333 499 554
b 115 231 242 262 267 332 499 554
b 116 224 231 242 262 267 332 554
b 117 224 231 242 262 332 487 554
b 118 231 242 332 382 487 554
b 119 231 242 326 382 487
b 120 242 326 399 487
b 121 187 332 382 554
b 122 210 231 332 382
b 123 25 224 262 332 487 554
b 124 25 71 224 487
b 125 25 222 224 262
b 126 224 242 487 601
b 127 45 103 170 199 227 262 332 333 351 394 414 420 422 430
b 128 45 103 170 199 262 308 332 333 351 394 414 420 422
b 129 262 308 351 420 422 541
b 130 240 351 420 422 541
b 131 240 351 420 483 541
b 132 316 351 483 541
b 133 137 240 483 541
b 134 103 170 308 311 332 333 394 414 420
b 135 170 308 311 333 369
b 136 103 311 332 394 481
b 137 45 167 199 308 414 422
b 138 127 167 199 414 422
b 139 127 167 199 380 414
b 140 139 167 199 380
b 141 114 127 167 380
b 142 45 227 262 332 394 414 420 422 427 430
b 143 9 227 414 420 427
b 144 45 262 422 427 430 471
b 145 344 422 427 430 471
b 146 344 422 427 471 479
b 147 107 344 427 479
b 148 417 422 427 479
b 149 17 45 192 267 394 499 551
b 150 17 45 192 267 347 394 551
b 151 17 45 192 347 394 416 551
b 152 7 45 192 347 394 416 551
b 153 7 45 347 379 394 416 551
b 154 7 268 379 394 416 551
b 155 180 268 394 416
b 156 268 394 490 551
b 157 7 186 268 379 551
b 158 7 186 379 439
b 159 7 109 347 379
b 160 45 101 347 379 394 416
b 161 51 101 347 379
b 162 45 101 347 437
b 163 199 324 397 403 430 533
b 164 324 397 403 430 489
b 165 397 403 412 430 489
b 166 275 397 403 412 489
b 167 124 275 403 412 489
b 168 124 275 412 489 573
b 169 112 124 275 489 573
b 170 112 124 275 489 599
b 171 112 124 275 482 599
b 172 124 275 281 482 599
b 173 124 131 281 599
b 174 275 281 463 482 599
b 175 52 275 281 463 482
b 176 52 255 463 482
b 177 52 281 426 463
b 178 13 281 463 599
b 179 124 218 489 599
b 180 135 199 305 324 351 397 533 603
b 181 135 351 533 550
b 182 135 199 305 324 397 421 603
b 183 135 171 305 324 397 421 603
b 184 97 135 171 305 324 421 603
b 185 97 135 171 305 421 429 603
b 186 97 135 171 305 421 429 552
b 187 3 97 135 171 305 552
b 188 3 57 97 135 552
b 189 3 57 135 339 552
b 190 40 57 339 552
b 191 97 135 171 410 421 429 552
b 192 410 421 429 556
b 193 171 410 429 552 560
b 194 329 410 429 560
b 195 171 384 552 560
b 196 171 429 560 575
b 197 33 89 170 227 233 267 305 324 333 397 499 533 603
b 198 33 89 96 170 227 233 267 305 324 333 345 373 397 418 499 603
b 199 89 96 170 227 233 267 333 345 373 387 413 418 499 523
b 200 73 170 227 267 333 387 413 499 523
b 201 73 170 267 321 333 499 523
b 202 73 170 204 267 321 499 523
b 203 73 193 204 267 321 499 523
b 204 73 193 204 267 278 321 523
b 205 175 278 321 523
b 206 73 193 195 204 267 278 321
b 207 73 193 195 204 592
b 208 73 195 204 517 592
b 209 195 494 517 592
b 210 113 195 204 267 278 321
b 211 113 195 278 321 442
b 212 113 195 388 442
b 213 94 278 321 442
b 214 113 236 321 442
b 215 89 96 227 233 267 345 373 376 387 413 418 499 523
b 216 83 233 376 387 413
b 217 89 96 227 267 345 373 376 385 387 413 418 499 523
b 218 75 89 96 227 267 345 373 376 385 387 499 523
b 219 75 227 267 269 376 387 499
b 220 75 267 269 493 499
b 221 75 89 345 373 376 385 503
b 222 89 164 345 373 376 503
b 223 5 164 345 373
b 224 89 164 376 501 503
b 225 164 376 383 501
b 226 89 376 497 501
b 227 75 89 96 173 387 523
b 228 89 96 123 173 387
b 229 96 123 173 336 387
b 230 64 123 173 336
b 231 96 173 336 341
b 232 19 89 385 413 418 523
b 233 19 89 138 413 418
b 234 89 122 138 413
b 235 88 138 413 418
b 236 227 258 267 376 385 413 499
b 237 196 258 267 385 499
b 238 12 196 258 385 499
b 239 12 196 258 385 466
b 240 12 196 258 466 500
b 241 12 258 441 500
b 242 133 196 258 466 500
b 243 133 196 212 258 500
b 244 212 258 261 500
b 245 133 196 212 428 500
b 246 212 428 500 590
b 247 133 189 196 212 428
b 248 43 133 189 428
b 249 69 189 212 428
b 250 196 299 385 466
b 251 96 305 345 564 603
b 252 96 305 456 564 603
b 253 206 305 456 564 603
b 254 134 206 456 564 603
b 255 48 134 206 456 564
b 256 48 134 456 540
b 257 48 92 134 206 564
b 258 48 92 134 183 564
b 259 48 92 134 183 274
b 260 48 134 183 274 295
b 261 63 183 274 295
b 262 48 111 134 274 295
b 263 111 134 295 467
b 264 111 274 295 536
b 265 48 104 111 134
b 266 92 183 188 274
b 267 33 96 277 305 324 345 373 397 418 603
b 268 277 305 324 359 373 397 603
b 269 277 305 359 373 397 547 603
b 270 220 277 305 359 373 397 547
b 271 220 277 359 373 397 547 600
b 272 220 277 373 397 547 589 600
b 273 320 373 397 547 589 600
b 274 320 373 411 589
b 275 320 547 565 589 600
b 276 320 404 547 565 600
b 277 77 404 565 600
b 278 220 277 353 359 600
b 279 253 353 359 600
b 280 277 353 359 419
b 281 161 220 277 353
b 282 33 96 259 277 305 345 418 603
b 283 96 185 259 277 305 418 603
b 284 185 259 277 418 465
b 285 163 185 418 465
b 286 96 185 259 288 305 603
b 287 130 185 288 305 603
b 288 6 130 185 305 603
b 289 2 6 130 185 603
b 290 2 6 130 185 588
b 291 2 6 130 217 588
b 292 2 130 217 582 588
b 293 2 217 400 582 588
b 294 217 377 400 582
b 295 2 372 400 582 588
b 296 2 143 372 400 582
b 297 143 372 400 574
b 298 2 62 143 372
b 299 143 219 400 582
b 300 2 356 372 588
b 301 2 185 454 588
b 302 287 305 351 425 430 458 533 603
b 303 70 430 458 533
b 304 287 305 351 398 425 458 603
b 305 287 305 398 425 458 549 603
b 306 290 305 398 425 458 549 603
b 307 290 292 305 398 458 549 603
b 308 290 292 305 398 458 488 549
b 309 27 290 305 458 488 549
b 310 27 182 458 488 549
b 311 27 182 458 459 488
b 312 179 182 459 488
b 313 290 292 398 406 458 488 549
b 314 292 398 406 558
b 315 290 292 406 445 488
b 316 290 292 375 445 488
b 317 246 290 292 375 445
b 318 150 246 375 445
b 319 37 75 269 493 499
b 320 37 75 125 269 493
b 321 37 125 269 493 514
b 322 125 269 493 514 596
b 323 125 493 514 516 596
b 324 514 516 545 596
b 325 85 125 493 516 596
b 326 54 85 125 493 516
b 327 54 85 493 526
b 328 54 85 362 516
b 329 49 54 125 493
b 330 85 516 568 596
b 331 75 125 491 493
b 332 280 308 311 333 369
b 333 280 298 308 311 369
b 334 280 298 311 369 548
b 335 147 280 298 311 548
b 336 147 280 298 548 555
b 337 147 431 548 555
b 338 147 280 298 349 555
b 339 72 280 298 349
b 340 142 147 280 349 555
b 341 80 142 147 555
b 342 99 142 280 349
b 343 110 142 349 555
b 344 280 298 308 583
b 345 68 115 340 381 499
b 346 20 68 115 340 381
b 347 20 115 136 381
b 348 20 68 162 340 381
b 349 20 68 162 317 381
b 350 20 162 177 317 381
b 351 20 98 177 381
b 352 162 177 226 317 381
b 353 177 226 378 381
b 354 157 162 177 226 317
b 355 157 226 317 538
b 356 157 162 317 492
b 357 157 177 226 247
b 358 82 192 331 571 602
b 359 82 331 571 594 602
b 360 82 166 331 571 594
b 361 82 166 331 535 571
b 362 166 228 331 535 571
b 363 228 323 331 571
b 364 166 228 331 534 535
b 365 16 228 331 534
b 366 102 166 228 534 535
b 367 102 128 228 534
b 368 102 166 402 535
b 369 102 151 534 535
b 370 82 338 594 602
b 371 328 576 584
b 372 53 571 602
b 373 354 560 575
b 374 18 547 600
b 375 303 545 596
b 376 530 579 580
b 377 366 516 568
b 378 58 509 595
b 379 23 506 525
b 380 360 494 517
b 381 200 487 601
b 382 355 476 520
b 383 454 588 604
b 384 87 453 532
b 385 76 426 463
b 386 423 461 485
b 387 181 422 474
b 388 417 427 448
b 389 412 489 567
b 390 411 515 589
b 391 79 410 556
b 392 291 407 425
b 393 15 406 558
b 394 402 535 553
b 395 254 401 473
b 396 81 398 549
b 397 390 438 570
b 398 383 501 528
b 399 251 377 582
b 400 108 376 497
b 401 282 374 395
b 402 184 353 419
b 403 351 480 550
b 404 46 348 508
b 405 344 363 471
b 406 338 511 594
b 407 300 329 429
b 408 323 331 527
b 409 84 320 565
b 410 197 317 492
b 411 256 316 541
b 412 311 315 548
b 413 120 308 369
b 414 155 305 389
b 415 44 304 324
b 416 159 299 466
b 417 298 371 583
b 418 297 495 603
b 419 295 449 536
b 420 95 292 445
b 421 119 290 375
b 422 275 482 586
b 423 269 301 514
b 424 245 268 490
b 425 263 266 566
b 426 262 460 554
b 427 149 261 500
b 428 258 393 441
b 429 61 253 359
b 430 22 250 287
b 431 242 364 399
b 432 38 240 420
b 433 239 325 539
b 434 232 238 505
b 435 237 248 563
b 436 59 236 442
b 437 235 415 486
b 438 234 330 357
b 439 225 231 326
b 440 226 247 294
b 441 8 221 333
b 442 191 220 373
b 443 219 314 400
b 444 216 335 468
b 445 214 484 544
b 446 153 213 343
b 447 212 337 590
b 448 210 307 382
b 449 206 252 456
b 450 203 365 450
b 451 35 202 265
b 452 199 367 403
b 453 86 195 204
b 454 144 194 221
b 455 65 193 523
b 456 187 332 464
b 457 186 283 551
b 458 183 188 273
b 459 182 458 593
b 460 180 394 457
b 461 118 179 459
b 462 177 370 378
b 463 176 309 499
b 464 175 278 561
b 465 67 173 341
b 466 116 172 597
b 467 30 171 384
b 468 160 170 451
b 469 168 391 543
b 470 164 503 572
b 471 163 465 524
b 472 161 257 277
b 473 157 446 538
b 474 152 249 557
b 475 150 215 246
b 476 141 147 431
b 477 144 194 241
b 478 143 293 574
b 479 139 167 198
b 480 137 296 483
b 481 133 196 327
b 482 131 279 599
b 483 130 217 322
b 484 60 129 310
b 485 128 165 534
b 486 127 414 507
b 487 125 455 491
b 488 124 154 218
b 489 123 358 387
b 490 78 122 413
b 491 117 342 477
b 492 115 264 340
b 493 114 380 606
b 494 113 388 469
b 495 112 260 573
b 496 111 467 542
b 497 29 110 142
b 498 109 285 379
b 499 107 396 479
b 500 106 156 223
b 501 104 134 452
b 502 103 434 481
b 503 103 272 434
b 504 103 397 605
b 505 103 272 531
b 506 103 443 531
b 507 103 443 529
b 508 102 151 435
b 509 101 145 437
b 510 100 276 510
b 511 99 140 349
b 512 98 381 581
b 513 32 97 421
b 514 96 288 433
b 515 94 321 346
b 516 93 424 537
b 517 92 205 564
b 518 89 496 533
b 519 88 138 444
b 520 87 208 453
b 521 87 201 319
b 522 87 208 319
b 523 85 362 472
b 524 83 233 302
b 525 82 166 386
b 526 80 105 555
b 527 77 392 404
b 528 74 90 313
b 529 73 440 592
b 530 72 207 280
b 531 71 224 409
b 532 70 352 430
b 533 69 428 546
b 534 68 162 447
b 535 66 267 569
b 536 64 336 577
b 537 63 274 522
b 538 62 158 372
b 539 57 135 190
b 540 56 270 518
b 541 55 462 598
b 542 54 526 591
b 543 52 91 255
b 544 51 148 347
b 545 50 192 211
b 546 49 121 493
b 547 48 178 540
b 548 47 368 498
b 549 14 45 416
b 550 43 189 559
b 551 42 405 436
b 552 41 318 578
b 553 40 312 339
b 554 39 229 475
b 555 37 75 562
b 556 36 132 512
b 557 34 174 408
b 558 33 259 432
b 559 28 243 478
b 560 27 488 502
b 561 26 284 587
b 562 25 126 222
b 563 24 271 289
b 564 20 136 513
b 565 19 361 418
b 566 17 169 521
b 567 16 21 228
b 568 13 244 281
b 569 12 146 385
b 570 11 31 230
b 571 10 334 585
b 572 4 9 227
b 573 7 286 439
b 574 6 185 306
b 575 5 345 350
b 576 3 504 552
b 577 2 356 470
b 578 1 209 519
1 578
1 2
2 395
2 100
2 3
3 4
4 5
5 6
6 7
7 8
8 77
8 9
9 43
9 60
9 10
10 11
11 26
11 12
12 504
12 108
12 13
13 441
13 20
13 14
14 414
14 15
15 415
15 16
16 430
16 18
16 19
16 17
17 392
18 454
19 418
20 566
20 21
21 468
21 22
22 463
22 24
22 25
22 23
23 535
24 384
25 545
26 42
26 27
27 28
28 378
28 29
29 30
30 41
30 31
31 484
31 32
32 40
32 33
33 34
33 35
34 451
35 39
35 36
36 37
36 38
37 541
38 556
39 561
40 445
41 386
42 382
43 59
43 44
44 45
45 435
45 46
46 47
47 58
47 48
48 404
48 49
49 50
49 51
50 500
51 52
51 53
52 379
53 54
53 55
54 450
55 57
55 56
56 444
57 571
58 401
59 434
60 62
60 61
61 466
62 63
63 64
64 65
65 66
66 67
66 69
67 528
67 68
68 474
69 491
69 73
69 70
70 71
71 446
71 72
72 559
73 75
73 76
73 74
74 516
75 551
76 540
77 99
77 78
78 79
78 84
78 86
79 80
80 548
80 81
81 82
81 83
82 438
83 437
84 85
85 345
86 89
86 94
86 87
87 88
88 372
88 358
89 90
90 425
90 91
91 93
91 92
92 469
93 570
94 95
95 552
95 96
96 98
96 97
97 371
98 554
99 387
100 563
100 101
100 105
101 103
101 102
101 104
102 510
103 557
104 433
105 107
105 106
106 376
107 397
108 197
108 109
109 302
109 110
110 111
110 163
110 180
111 112
111 149
112 113
112 127
113 426
113 114
114 115
115 116
116 117
117 126
117 123
117 118
118 121
118 122
118 119
119 439
119 120
120 431
121 456
122 448
123 124
123 125
124 531
125 562
126 381
127 142
127 128
128 137
128 129
128 134
129 130
130 432
130 131
131 133
131 132
132 411
133 480
134 135
134 136
135 413
135 332
136 502
137 138
138 486
138 139
139 141
139 140
140 479
141 493
142 143
142 144
143 572
144 145
145 405
145 146
146 147
146 148
147 499
148 388
149 150
150 151
151 549
151 152
152 153
153 159
153 160
153 154
154 155
154 156
154 157
155 460
156 424
157 457
157 158
158 573
159 498
160 161
160 162
161 544
162 509
163 452
163 164
164 165
165 389
165 166
166 167
167 168
168 169
169 495
169 170
170 179
170 171
171 422
171 172
172 173
172 174
173 482
174 178
174 175
175 177
175 176
176 543
177 385
178 568
179 488
180 181
180 182
181 403
182 183
183 184
184 513
184 185
185 186
186 187
186 191
187 576
187 188
188 539
188 189
189 190
190 553
191 192
191 193
192 391
193 194
193 196
193 195
194 407
195 467
196 373
197 518
197 198
198 199
198 251
198 267
199 200
199 215
200 201
201 202
202 203
203 455
203 204
204 205
204 206
205 464
206 453
206 207
206 210
207 529
207 208
208 209
209 380
210 211
211 213
211 214
211 212
212 494
213 515
214 436
215 216
215 217
216 524
217 232
217 236
217 218
218 227
218 221
218 219
219 220
220 319
221 222
222 470
222 223
222 224
223 575
224 225
224 226
225 398
226 400
227 228
228 489
228 229
229 230
229 231
230 536
231 465
232 565
232 233
233 235
233 234
234 490
235 519
236 237
237 238
238 569
238 239
239 240
239 250
240 241
240 242
241 428
242 481
242 243
243 244
243 245
244 427
245 246
245 247
246 447
247 248
247 249
248 550
249 533
250 416
251 252
252 253
253 449
253 254
254 255
255 256
255 257
256 547
257 517
257 258
258 259
259 266
259 260
260 261
260 262
261 537
262 264
262 263
262 265
263 496
264 419
265 501
266 458
267 268
267 282
268 269
269 270
270 442
270 271
271 374
271 278
271 272
272 273
273 274
273 275
274 390
275 409
275 276
276 277
277 527
278 281
278 280
278 279
279 429
280 402
281 472
282 558
282 283
283 286
283 284
284 285
285 471
286 514
286 287
287 288
288 574
288 289
289 290
290 301
290 291
291 483
291 292
292 293
293 294
293 295
294 399
295 300
295 296
296 298
296 297
296 299
297 478
298 538
299 443
300 577
301 383
302 304
302 303
303 532
304 305
305 396
305 306
306 307
307 308
308 309
308 313
309 560
309 310
310 459
310 311
311 312
312 461
313 315
313 314
314 393
315 420
315 316
316 421
316 317
317 318
318 475
319 555
319 320
320 331
320 321
321 423
321 322
322 323
323 324
323 325
324 375
325 330
325 326
326 329
326 327
326 328
327 542
328 523
329 546
330 377
331 487
332 333
333 344
333 334
334 412
334 335
335 336
336 337
336 338
337 476
338 339
338 340
339 530
340 342
340 343
340 341
341 526
342 511
343 497
344 417
345 492
345 346
346 347
346 348
347 564
348 534
348 349
349 350
350 351
350 352
351 512
352 353
352 354
353 462
354 357
354 355
354 356
355 473
356 410
357 440
358 359
359 360
359 370
360 525
360 361
361 362
362 363
362 364
363 408
364 365
364 366
365 567
366 367
366 369
366 368
367 485
368 394
369 508
370 406
384 520
454 477
502 503
503 505
505 506
506 507
520 522
521 522
